db/data/22953334128273166581031928047294096099.z3.out
-------------------
2500.195267525
